p cnf 3391
-19 -289
-20 -102
-21 -105
-22 -108
-23 -111
-24 -114
-25 -117
-26 -120
-27 -123
-28 -126
-29 -336
-30 -342
-31 -348
-32 -354
-33 -360
-34 -366
-35 -372
-36 -378
-37 -384
-38 -412
-39 -431
-40 -449
-41 -459
-42 -478
-43 -497
-44 -515
-45 -525
-46 -544
-47 -563
-48 -581
-49 -591
-50 -610
-51 -629
-52 -647
-53 -657
-54 -676
-55 -695
-56 -713
-57 -723
-58 -742
-59 -761
-60 -779
-61 -789
-62 -808
-63 -827
-64 -845
-65 -855
-66 -874
-67 -893
-68 -911
-69 -921
-70 -940
-71 -959
-72 -977
-73 -987
-74 -1050
-75 -1056
-76 1
-76 -29
-1 29 76
-77 2
-77 -30
-2 30 77
-78 3
-78 -31
-3 31 78
-79 4
-79 -32
-4 32 79
-80 5
-80 -33
-5 33 80
-81 6
-81 -34
-6 34 81
-82 7
-82 -35
-7 35 82
-83 8
-83 -36
-8 36 83
-84 9
-84 -37
-9 37 84
-85 -76
-85 77
76 -77 85
-86 -76
-86 -85
76 85 86
-87 78
-87 86
-78 -86 87
-88 86
-88 -87
-86 87 88
-89 79
-89 88
-79 -88 89
-90 88
-90 -89
-88 89 90
-91 80
-91 90
-80 -90 91
-92 90
-92 -91
-90 91 92
-93 81
-93 92
-81 -92 93
-94 92
-94 -93
-92 93 94
-95 82
-95 94
-82 -94 95
-96 94
-96 -95
-94 95 96
-97 83
-97 96
-83 -96 97
-98 96
-98 -97
-96 97 98
-99 84
-99 98
-84 -98 99
-100 -19
-100 76
19 -76 100
-101 19
-101 20
-19 -20 101
-102 -100
-102 -101
100 101 102
-103 -19
-103 85
19 -85 103
-104 19
-104 21
-19 -21 104
-105 -103
-105 -104
103 104 105
-106 -19
-106 87
19 -87 106
-107 19
-107 22
-19 -22 107
-108 -106
-108 -107
106 107 108
-109 -19
-109 89
19 -89 109
-110 19
-110 23
-19 -23 110
-111 -109
-111 -110
109 110 111
-112 -19
-112 91
19 -91 112
-113 19
-113 24
-19 -24 113
-114 -112
-114 -113
112 113 114
-115 -19
-115 93
19 -93 115
-116 19
-116 25
-19 -25 116
-117 -115
-117 -116
115 116 117
-118 -19
-118 95
19 -95 118
-119 19
-119 26
-19 -26 119
-120 -118
-120 -119
118 119 120
-121 -19
-121 97
19 -97 121
-122 19
-122 27
-19 -27 122
-123 -121
-123 -122
121 122 123
-124 -19
-124 99
19 -99 124
-125 19
-125 28
-19 -28 125
-126 -124
-126 -125
124 125 126
-127 1
-127 -102
-1 102 127
-128 2
-128 -105
-2 105 128
-129 3
-129 -108
-3 108 129
-130 4
-130 -111
-4 111 130
-131 5
-131 -114
-5 114 131
-132 6
-132 -117
-6 117 132
-133 7
-133 -120
-7 120 133
-134 8
-134 -123
-8 123 134
-135 9
-135 -126
-9 126 135
-136 38
-136 -39
-38 39 136
-137 -40
-137 -41
40 41 137
-138 136
-138 137
-136 -137 138
-139 -38
-139 -39
38 39 139
-140 -40
-140 41
40 -41 140
-141 139
-141 140
-139 -140 141
-142 -138
-142 -141
138 141 142
-143 127
-143 -142
-127 142 143
-144 42
-144 -43
-42 43 144
-145 -44
-145 -45
44 45 145
-146 144
-146 145
-144 -145 146
-147 -42
-147 -43
42 43 147
-148 -44
-148 45
44 -45 148
-149 147
-149 148
-147 -148 149
-150 -146
-150 -149
146 149 150
-151 128
-151 -150
-128 150 151
-152 46
-152 -47
-46 47 152
-153 -48
-153 -49
48 49 153
-154 152
-154 153
-152 -153 154
-155 -46
-155 -47
46 47 155
-156 -48
-156 49
48 -49 156
-157 155
-157 156
-155 -156 157
-158 -154
-158 -157
154 157 158
-159 129
-159 -158
-129 158 159
-160 50
-160 -51
-50 51 160
-161 -52
-161 -53
52 53 161
-162 160
-162 161
-160 -161 162
-163 -50
-163 -51
50 51 163
-164 -52
-164 53
52 -53 164
-165 163
-165 164
-163 -164 165
-166 -162
-166 -165
162 165 166
-167 130
-167 -166
-130 166 167
-168 54
-168 -55
-54 55 168
-169 -56
-169 -57
56 57 169
-170 168
-170 169
-168 -169 170
-171 -54
-171 -55
54 55 171
-172 -56
-172 57
56 -57 172
-173 171
-173 172
-171 -172 173
-174 -170
-174 -173
170 173 174
-175 131
-175 -174
-131 174 175
-176 58
-176 -59
-58 59 176
-177 -60
-177 -61
60 61 177
-178 176
-178 177
-176 -177 178
-179 -58
-179 -59
58 59 179
-180 -60
-180 61
60 -61 180
-181 179
-181 180
-179 -180 181
-182 -178
-182 -181
178 181 182
-183 132
-183 -182
-132 182 183
-184 62
-184 -63
-62 63 184
-185 -64
-185 -65
64 65 185
-186 184
-186 185
-184 -185 186
-187 -62
-187 -63
62 63 187
-188 -64
-188 65
64 -65 188
-189 187
-189 188
-187 -188 189
-190 -186
-190 -189
186 189 190
-191 133
-191 -190
-133 190 191
-192 66
-192 -67
-66 67 192
-193 -68
-193 -69
68 69 193
-194 192
-194 193
-192 -193 194
-195 -66
-195 -67
66 67 195
-196 -68
-196 69
68 -69 196
-197 195
-197 196
-195 -196 197
-198 -194
-198 -197
194 197 198
-199 134
-199 -198
-134 198 199
-200 70
-200 -71
-70 71 200
-201 -72
-201 -73
72 73 201
-202 200
-202 201
-200 -201 202
-203 -70
-203 -71
70 71 203
-204 -72
-204 73
72 -73 204
-205 203
-205 204
-203 -204 205
-206 -202
-206 -205
202 205 206
-207 135
-207 -206
-135 206 207
-208 -143
-208 -151
143 151 208
-209 -159
-209 -167
159 167 209
-210 -175
-210 -183
175 183 210
-211 -191
-211 -199
191 199 211
-212 208
-212 209
-208 -209 212
-213 210
-213 211
-210 -211 213
-214 212
-214 213
-212 -213 214
-215 -207
-215 214
207 -214 215
-216 -38
-216 39
38 -39 216
-217 40
-217 -41
-40 41 217
-218 216
-218 217
-216 -217 218
-219 40
-219 41
-40 -41 219
-220 136
-220 219
-136 -219 220
-221 -218
-221 -220
218 220 221
-222 127
-222 -221
-127 221 222
-223 -42
-223 43
42 -43 223
-224 44
-224 -45
-44 45 224
-225 223
-225 224
-223 -224 225
-226 44
-226 45
-44 -45 226
-227 144
-227 226
-144 -226 227
-228 -225
-228 -227
225 227 228
-229 128
-229 -228
-128 228 229
-230 -46
-230 47
46 -47 230
-231 48
-231 -49
-48 49 231
-232 230
-232 231
-230 -231 232
-233 48
-233 49
-48 -49 233
-234 152
-234 233
-152 -233 234
-235 -232
-235 -234
232 234 235
-236 129
-236 -235
-129 235 236
-237 -50
-237 51
50 -51 237
-238 52
-238 -53
-52 53 238
-239 237
-239 238
-237 -238 239
-240 52
-240 53
-52 -53 240
-241 160
-241 240
-160 -240 241
-242 -239
-242 -241
239 241 242
-243 130
-243 -242
-130 242 243
-244 -54
-244 55
54 -55 244
-245 56
-245 -57
-56 57 245
-246 244
-246 245
-244 -245 246
-247 56
-247 57
-56 -57 247
-248 168
-248 247
-168 -247 248
-249 -246
-249 -248
246 248 249
-250 131
-250 -249
-131 249 250
-251 -58
-251 59
58 -59 251
-252 60
-252 -61
-60 61 252
-253 251
-253 252
-251 -252 253
-254 60
-254 61
-60 -61 254
-255 176
-255 254
-176 -254 255
-256 -253
-256 -255
253 255 256
-257 132
-257 -256
-132 256 257
-258 -62
-258 63
62 -63 258
-259 64
-259 -65
-64 65 259
-260 258
-260 259
-258 -259 260
-261 64
-261 65
-64 -65 261
-262 184
-262 261
-184 -261 262
-263 -260
-263 -262
260 262 263
-264 133
-264 -263
-133 263 264
-265 -66
-265 67
66 -67 265
-266 68
-266 -69
-68 69 266
-267 265
-267 266
-265 -266 267
-268 68
-268 69
-68 -69 268
-269 192
-269 268
-192 -268 269
-270 -267
-270 -269
267 269 270
-271 134
-271 -270
-134 270 271
-272 -70
-272 71
70 -71 272
-273 72
-273 -73
-72 73 273
-274 272
-274 273
-272 -273 274
-275 72
-275 73
-72 -73 275
-276 200
-276 275
-200 -275 276
-277 -274
-277 -276
274 276 277
-278 135
-278 -277
-135 277 278
-279 -222
-279 -229
222 229 279
-280 -236
-280 -243
236 243 280
-281 -250
-281 -257
250 257 281
-282 -264
-282 -271
264 271 282
-283 279
-283 280
-279 -280 283
-284 281
-284 282
-281 -282 284
-285 283
-285 284
-283 -284 285
-286 -278
-286 285
278 -285 286
-287 19
-287 286
-19 -286 287
-288 215
-288 287
-215 -287 288
-289 215
-289 -288
-215 288 289
-290 -29
-290 30
29 -30 290
-291 -29
-291 -290
29 290 291
-292 31
-292 291
-31 -291 292
-293 291
-293 -292
-291 292 293
-294 32
-294 293
-32 -293 294
-295 293
-295 -294
-293 294 295
-296 33
-296 295
-33 -295 296
-297 295
-297 -296
-295 296 297
-298 34
-298 297
-34 -297 298
-299 297
-299 -298
-297 298 299
-300 35
-300 299
-35 -299 300
-301 299
-301 -300
-299 300 301
-302 36
-302 301
-36 -301 302
-303 301
-303 -302
-301 302 303
-304 37
-304 303
-37 -303 304
-305 139
-305 219
-139 -219 305
-306 127
-306 305
-127 -305 306
-307 147
-307 226
-147 -226 307
-308 128
-308 307
-128 -307 308
-309 155
-309 233
-155 -233 309
-310 129
-310 309
-129 -309 310
-311 163
-311 240
-163 -240 311
-312 130
-312 311
-130 -311 312
-313 171
-313 247
-171 -247 313
-314 131
-314 313
-131 -313 314
-315 179
-315 254
-179 -254 315
-316 132
-316 315
-132 -315 316
-317 187
-317 261
-187 -261 317
-318 133
-318 317
-133 -317 318
-319 195
-319 268
-195 -268 319
-320 134
-320 319
-134 -319 320
-321 203
-321 275
-203 -275 321
-322 135
-322 321
-135 -321 322
-323 -306
-323 -308
306 308 323
-324 -310
-324 -312
310 312 324
-325 -314
-325 -316
314 316 325
-326 -318
-326 -320
318 320 326
-327 323
-327 324
-323 -324 327
-328 325
-328 326
-325 -326 328
-329 327
-329 328
-327 -328 329
-330 -322
-330 329
322 -329 330
-331 136
-331 217
-136 -217 331
-332 127
-332 331
-127 -331 332
-333 29
-333 -330
-29 330 333
-334 29
-334 -333
-29 333 334
-335 -332
-335 334
332 -334 335
-336 -332
-336 -335
332 335 336
-337 144
-337 224
-144 -224 337
-338 128
-338 337
-128 -337 338
-339 290
-339 -330
-290 330 339
-340 30
-340 -339
-30 339 340
-341 -338
-341 340
338 -340 341
-342 -338
-342 -341
338 341 342
-343 152
-343 231
-152 -231 343
-344 129
-344 343
-129 -343 344
-345 292
-345 -330
-292 330 345
-346 31
-346 -345
-31 345 346
-347 -344
-347 346
344 -346 347
-348 -344
-348 -347
344 347 348
-349 160
-349 238
-160 -238 349
-350 130
-350 349
-130 -349 350
-351 294
-351 -330
-294 330 351
-352 32
-352 -351
-32 351 352
-353 -350
-353 352
350 -352 353
-354 -350
-354 -353
350 353 354
-355 168
-355 245
-168 -245 355
-356 131
-356 355
-131 -355 356
-357 296
-357 -330
-296 330 357
-358 33
-358 -357
-33 357 358
-359 -356
-359 358
356 -358 359
-360 -356
-360 -359
356 359 360
-361 176
-361 252
-176 -252 361
-362 132
-362 361
-132 -361 362
-363 298
-363 -330
-298 330 363
-364 34
-364 -363
-34 363 364
-365 -362
-365 364
362 -364 365
-366 -362
-366 -365
362 365 366
-367 184
-367 259
-184 -259 367
-368 133
-368 367
-133 -367 368
-369 300
-369 -330
-300 330 369
-370 35
-370 -369
-35 369 370
-371 -368
-371 370
368 -370 371
-372 -368
-372 -371
368 371 372
-373 192
-373 266
-192 -266 373
-374 134
-374 373
-134 -373 374
-375 302
-375 -330
-302 330 375
-376 36
-376 -375
-36 375 376
-377 -374
-377 376
374 -376 377
-378 -374
-378 -377
374 377 378
-379 200
-379 273
-200 -273 379
-380 135
-380 379
-135 -379 380
-381 304
-381 -330
-304 330 381
-382 37
-382 -381
-37 381 382
-383 -380
-383 382
380 -382 383
-384 -380
-384 -383
380 383 384
-385 -29
-385 -30
29 30 385
-386 -31
-386 -32
31 32 386
-387 -33
-387 -34
33 34 387
-388 -35
-388 -36
35 36 388
-389 385
-389 386
-385 -386 389
-390 387
-390 388
-387 -388 390
-391 389
-391 390
-389 -390 391
-392 -37
-392 391
37 -391 392
-393 74
-393 75
-74 -75 393
-394 -39
-394 -139
39 139 394
-395 40
-395 139
-40 -139 395
-396 -40
-396 -394
40 394 396
-397 -395
-397 -396
395 396 397
-398 -10
-398 38
10 -38 398
-399 38
-399 -398
-38 398 399
-400 39
-400 -399
-39 399 400
-401 10
-401 -38
-10 38 401
-402 -39
-402 401
39 -401 402
-403 -216
-403 -402
216 402 403
-404 40
-404 400
-40 -400 404
-405 -40
-405 -403
40 403 405
-406 -404
-406 -405
404 405 406
-407 41
-407 -397
-41 397 407
-408 -41
-408 -406
41 406 408
-409 -407
-409 -408
407 408 409
-410 127
-410 -409
-127 409 410
-411 38
-411 -127
-38 127 411
-412 -410
-412 -411
410 411 412
-413 38
-413 392
-38 -392 413
-414 -39
-414 413
39 -413 414
-415 -216
-415 -414
216 414 415
-416 40
-416 136
-40 -136 416
-417 -40
-417 -415
40 415 417
-418 -416
-418 -417
416 417 418
-419 39
-419 -400
-39 400 419
-420 -38
-420 -393
38 393 420
-421 39
-421 420
-39 -420 421
-422 -136
-422 -421
136 421 422
-423 40
-423 -419
-40 419 423
-424 -40
-424 -422
40 422 424
-425 -423
-425 -424
423 424 425
-426 41
-426 -418
-41 418 426
-427 -41
-427 -425
41 425 427
-428 -426
-428 -427
426 427 428
-429 127
-429 -428
-127 428 429
-430 39
-430 -127
-39 127 430
-431 -429
-431 -430
429 430 431
-432 38
-432 -392
-38 392 432
-433 38
-433 39
-38 -39 433
-434 -39
-434 432
39 -432 434
-435 -433
-435 -434
433 434 435
-436 -39
-436 40
39 -40 436
-437 -40
-437 -435
40 435 437
-438 -436
-438 -437
436 437 438
-439 -38
-439 393
38 -393 439
-440 -38
-440 -439
38 439 440
-441 39
-441 -440
-39 440 441
-442 -40
-442 441
40 -441 442
-443 -423
-443 -442
423 442 443
-444 41
-444 -438
-41 438 444
-445 -41
-445 -443
41 443 445
-446 -444
-446 -445
444 445 446
-447 127
-447 -446
-127 446 447
-448 40
-448 -127
-40 127 448
-449 -447
-449 -448
447 448 449
-450 40
-450 -436
-40 436 450
-451 10
-451 38
-10 -38 451
-452 39
-452 451
-39 -451 452
-453 40
-453 452
-40 -452 453
-454 41
-454 -450
-41 450 454
-455 -41
-455 453
41 -453 455
-456 -454
-456 -455
454 455 456
-457 127
-457 -456
-127 456 457
-458 41
-458 -127
-41 127 458
-459 -457
-459 -458
457 458 459
-460 -43
-460 -147
43 147 460
-461 44
-461 147
-44 -147 461
-462 -44
-462 -460
44 460 462
-463 -461
-463 -462
461 462 463
-464 -11
-464 42
11 -42 464
-465 42
-465 -464
-42 464 465
-466 43
-466 -465
-43 465 466
-467 11
-467 -42
-11 42 467
-468 -43
-468 467
43 -467 468
-469 -223
-469 -468
223 468 469
-470 44
-470 466
-44 -466 470
-471 -44
-471 -469
44 469 471
-472 -470
-472 -471
470 471 472
-473 45
-473 -463
-45 463 473
-474 -45
-474 -472
45 472 474
-475 -473
-475 -474
473 474 475
-476 128
-476 -475
-128 475 476
-477 42
-477 -128
-42 128 477
-478 -476
-478 -477
476 477 478
-479 42
-479 392
-42 -392 479
-480 -43
-480 479
43 -479 480
-481 -223
-481 -480
223 480 481
-482 44
-482 144
-44 -144 482
-483 -44
-483 -481
44 481 483
-484 -482
-484 -483
482 483 484
-485 43
-485 -466
-43 466 485
-486 -42
-486 -393
42 393 486
-487 43
-487 486
-43 -486 487
-488 -144
-488 -487
144 487 488
-489 44
-489 -485
-44 485 489
-490 -44
-490 -488
44 488 490
-491 -489
-491 -490
489 490 491
-492 45
-492 -484
-45 484 492
-493 -45
-493 -491
45 491 493
-494 -492
-494 -493
492 493 494
-495 128
-495 -494
-128 494 495
-496 43
-496 -128
-43 128 496
-497 -495
-497 -496
495 496 497
-498 42
-498 -392
-42 392 498
-499 42
-499 43
-42 -43 499
-500 -43
-500 498
43 -498 500
-501 -499
-501 -500
499 500 501
-502 -43
-502 44
43 -44 502
-503 -44
-503 -501
44 501 503
-504 -502
-504 -503
502 503 504
-505 -42
-505 393
42 -393 505
-506 -42
-506 -505
42 505 506
-507 43
-507 -506
-43 506 507
-508 -44
-508 507
44 -507 508
-509 -489
-509 -508
489 508 509
-510 45
-510 -504
-45 504 510
-511 -45
-511 -509
45 509 511
-512 -510
-512 -511
510 511 512
-513 128
-513 -512
-128 512 513
-514 44
-514 -128
-44 128 514
-515 -513
-515 -514
513 514 515
-516 44
-516 -502
-44 502 516
-517 11
-517 42
-11 -42 517
-518 43
-518 517
-43 -517 518
-519 44
-519 518
-44 -518 519
-520 45
-520 -516
-45 516 520
-521 -45
-521 519
45 -519 521
-522 -520
-522 -521
520 521 522
-523 128
-523 -522
-128 522 523
-524 45
-524 -128
-45 128 524
-525 -523
-525 -524
523 524 525
-526 -47
-526 -155
47 155 526
-527 48
-527 155
-48 -155 527
-528 -48
-528 -526
48 526 528
-529 -527
-529 -528
527 528 529
-530 -12
-530 46
12 -46 530
-531 46
-531 -530
-46 530 531
-532 47
-532 -531
-47 531 532
-533 12
-533 -46
-12 46 533
-534 -47
-534 533
47 -533 534
-535 -230
-535 -534
230 534 535
-536 48
-536 532
-48 -532 536
-537 -48
-537 -535
48 535 537
-538 -536
-538 -537
536 537 538
-539 49
-539 -529
-49 529 539
-540 -49
-540 -538
49 538 540
-541 -539
-541 -540
539 540 541
-542 129
-542 -541
-129 541 542
-543 46
-543 -129
-46 129 543
-544 -542
-544 -543
542 543 544
-545 46
-545 392
-46 -392 545
-546 -47
-546 545
47 -545 546
-547 -230
-547 -546
230 546 547
-548 48
-548 152
-48 -152 548
-549 -48
-549 -547
48 547 549
-550 -548
-550 -549
548 549 550
-551 47
-551 -532
-47 532 551
-552 -46
-552 -393
46 393 552
-553 47
-553 552
-47 -552 553
-554 -152
-554 -553
152 553 554
-555 48
-555 -551
-48 551 555
-556 -48
-556 -554
48 554 556
-557 -555
-557 -556
555 556 557
-558 49
-558 -550
-49 550 558
-559 -49
-559 -557
49 557 559
-560 -558
-560 -559
558 559 560
-561 129
-561 -560
-129 560 561
-562 47
-562 -129
-47 129 562
-563 -561
-563 -562
561 562 563
-564 46
-564 -392
-46 392 564
-565 46
-565 47
-46 -47 565
-566 -47
-566 564
47 -564 566
-567 -565
-567 -566
565 566 567
-568 -47
-568 48
47 -48 568
-569 -48
-569 -567
48 567 569
-570 -568
-570 -569
568 569 570
-571 -46
-571 393
46 -393 571
-572 -46
-572 -571
46 571 572
-573 47
-573 -572
-47 572 573
-574 -48
-574 573
48 -573 574
-575 -555
-575 -574
555 574 575
-576 49
-576 -570
-49 570 576
-577 -49
-577 -575
49 575 577
-578 -576
-578 -577
576 577 578
-579 129
-579 -578
-129 578 579
-580 48
-580 -129
-48 129 580
-581 -579
-581 -580
579 580 581
-582 48
-582 -568
-48 568 582
-583 12
-583 46
-12 -46 583
-584 47
-584 583
-47 -583 584
-585 48
-585 584
-48 -584 585
-586 49
-586 -582
-49 582 586
-587 -49
-587 585
49 -585 587
-588 -586
-588 -587
586 587 588
-589 129
-589 -588
-129 588 589
-590 49
-590 -129
-49 129 590
-591 -589
-591 -590
589 590 591
-592 -51
-592 -163
51 163 592
-593 52
-593 163
-52 -163 593
-594 -52
-594 -592
52 592 594
-595 -593
-595 -594
593 594 595
-596 -13
-596 50
13 -50 596
-597 50
-597 -596
-50 596 597
-598 51
-598 -597
-51 597 598
-599 13
-599 -50
-13 50 599
-600 -51
-600 599
51 -599 600
-601 -237
-601 -600
237 600 601
-602 52
-602 598
-52 -598 602
-603 -52
-603 -601
52 601 603
-604 -602
-604 -603
602 603 604
-605 53
-605 -595
-53 595 605
-606 -53
-606 -604
53 604 606
-607 -605
-607 -606
605 606 607
-608 130
-608 -607
-130 607 608
-609 50
-609 -130
-50 130 609
-610 -608
-610 -609
608 609 610
-611 50
-611 392
-50 -392 611
-612 -51
-612 611
51 -611 612
-613 -237
-613 -612
237 612 613
-614 52
-614 160
-52 -160 614
-615 -52
-615 -613
52 613 615
-616 -614
-616 -615
614 615 616
-617 51
-617 -598
-51 598 617
-618 -50
-618 -393
50 393 618
-619 51
-619 618
-51 -618 619
-620 -160
-620 -619
160 619 620
-621 52
-621 -617
-52 617 621
-622 -52
-622 -620
52 620 622
-623 -621
-623 -622
621 622 623
-624 53
-624 -616
-53 616 624
-625 -53
-625 -623
53 623 625
-626 -624
-626 -625
624 625 626
-627 130
-627 -626
-130 626 627
-628 51
-628 -130
-51 130 628
-629 -627
-629 -628
627 628 629
-630 50
-630 -392
-50 392 630
-631 50
-631 51
-50 -51 631
-632 -51
-632 630
51 -630 632
-633 -631
-633 -632
631 632 633
-634 -51
-634 52
51 -52 634
-635 -52
-635 -633
52 633 635
-636 -634
-636 -635
634 635 636
-637 -50
-637 393
50 -393 637
-638 -50
-638 -637
50 637 638
-639 51
-639 -638
-51 638 639
-640 -52
-640 639
52 -639 640
-641 -621
-641 -640
621 640 641
-642 53
-642 -636
-53 636 642
-643 -53
-643 -641
53 641 643
-644 -642
-644 -643
642 643 644
-645 130
-645 -644
-130 644 645
-646 52
-646 -130
-52 130 646
-647 -645
-647 -646
645 646 647
-648 52
-648 -634
-52 634 648
-649 13
-649 50
-13 -50 649
-650 51
-650 649
-51 -649 650
-651 52
-651 650
-52 -650 651
-652 53
-652 -648
-53 648 652
-653 -53
-653 651
53 -651 653
-654 -652
-654 -653
652 653 654
-655 130
-655 -654
-130 654 655
-656 53
-656 -130
-53 130 656
-657 -655
-657 -656
655 656 657
-658 -55
-658 -171
55 171 658
-659 56
-659 171
-56 -171 659
-660 -56
-660 -658
56 658 660
-661 -659
-661 -660
659 660 661
-662 -14
-662 54
14 -54 662
-663 54
-663 -662
-54 662 663
-664 55
-664 -663
-55 663 664
-665 14
-665 -54
-14 54 665
-666 -55
-666 665
55 -665 666
-667 -244
-667 -666
244 666 667
-668 56
-668 664
-56 -664 668
-669 -56
-669 -667
56 667 669
-670 -668
-670 -669
668 669 670
-671 57
-671 -661
-57 661 671
-672 -57
-672 -670
57 670 672
-673 -671
-673 -672
671 672 673
-674 131
-674 -673
-131 673 674
-675 54
-675 -131
-54 131 675
-676 -674
-676 -675
674 675 676
-677 54
-677 392
-54 -392 677
-678 -55
-678 677
55 -677 678
-679 -244
-679 -678
244 678 679
-680 56
-680 168
-56 -168 680
-681 -56
-681 -679
56 679 681
-682 -680
-682 -681
680 681 682
-683 55
-683 -664
-55 664 683
-684 -54
-684 -393
54 393 684
-685 55
-685 684
-55 -684 685
-686 -168
-686 -685
168 685 686
-687 56
-687 -683
-56 683 687
-688 -56
-688 -686
56 686 688
-689 -687
-689 -688
687 688 689
-690 57
-690 -682
-57 682 690
-691 -57
-691 -689
57 689 691
-692 -690
-692 -691
690 691 692
-693 131
-693 -692
-131 692 693
-694 55
-694 -131
-55 131 694
-695 -693
-695 -694
693 694 695
-696 54
-696 -392
-54 392 696
-697 54
-697 55
-54 -55 697
-698 -55
-698 696
55 -696 698
-699 -697
-699 -698
697 698 699
-700 -55
-700 56
55 -56 700
-701 -56
-701 -699
56 699 701
-702 -700
-702 -701
700 701 702
-703 -54
-703 393
54 -393 703
-704 -54
-704 -703
54 703 704
-705 55
-705 -704
-55 704 705
-706 -56
-706 705
56 -705 706
-707 -687
-707 -706
687 706 707
-708 57
-708 -702
-57 702 708
-709 -57
-709 -707
57 707 709
-710 -708
-710 -709
708 709 710
-711 131
-711 -710
-131 710 711
-712 56
-712 -131
-56 131 712
-713 -711
-713 -712
711 712 713
-714 56
-714 -700
-56 700 714
-715 14
-715 54
-14 -54 715
-716 55
-716 715
-55 -715 716
-717 56
-717 716
-56 -716 717
-718 57
-718 -714
-57 714 718
-719 -57
-719 717
57 -717 719
-720 -718
-720 -719
718 719 720
-721 131
-721 -720
-131 720 721
-722 57
-722 -131
-57 131 722
-723 -721
-723 -722
721 722 723
-724 -59
-724 -179
59 179 724
-725 60
-725 179
-60 -179 725
-726 -60
-726 -724
60 724 726
-727 -725
-727 -726
725 726 727
-728 -15
-728 58
15 -58 728
-729 58
-729 -728
-58 728 729
-730 59
-730 -729
-59 729 730
-731 15
-731 -58
-15 58 731
-732 -59
-732 731
59 -731 732
-733 -251
-733 -732
251 732 733
-734 60
-734 730
-60 -730 734
-735 -60
-735 -733
60 733 735
-736 -734
-736 -735
734 735 736
-737 61
-737 -727
-61 727 737
-738 -61
-738 -736
61 736 738
-739 -737
-739 -738
737 738 739
-740 132
-740 -739
-132 739 740
-741 58
-741 -132
-58 132 741
-742 -740
-742 -741
740 741 742
-743 58
-743 392
-58 -392 743
-744 -59
-744 743
59 -743 744
-745 -251
-745 -744
251 744 745
-746 60
-746 176
-60 -176 746
-747 -60
-747 -745
60 745 747
-748 -746
-748 -747
746 747 748
-749 59
-749 -730
-59 730 749
-750 -58
-750 -393
58 393 750
-751 59
-751 750
-59 -750 751
-752 -176
-752 -751
176 751 752
-753 60
-753 -749
-60 749 753
-754 -60
-754 -752
60 752 754
-755 -753
-755 -754
753 754 755
-756 61
-756 -748
-61 748 756
-757 -61
-757 -755
61 755 757
-758 -756
-758 -757
756 757 758
-759 132
-759 -758
-132 758 759
-760 59
-760 -132
-59 132 760
-761 -759
-761 -760
759 760 761
-762 58
-762 -392
-58 392 762
-763 58
-763 59
-58 -59 763
-764 -59
-764 762
59 -762 764
-765 -763
-765 -764
763 764 765
-766 -59
-766 60
59 -60 766
-767 -60
-767 -765
60 765 767
-768 -766
-768 -767
766 767 768
-769 -58
-769 393
58 -393 769
-770 -58
-770 -769
58 769 770
-771 59
-771 -770
-59 770 771
-772 -60
-772 771
60 -771 772
-773 -753
-773 -772
753 772 773
-774 61
-774 -768
-61 768 774
-775 -61
-775 -773
61 773 775
-776 -774
-776 -775
774 775 776
-777 132
-777 -776
-132 776 777
-778 60
-778 -132
-60 132 778
-779 -777
-779 -778
777 778 779
-780 60
-780 -766
-60 766 780
-781 15
-781 58
-15 -58 781
-782 59
-782 781
-59 -781 782
-783 60
-783 782
-60 -782 783
-784 61
-784 -780
-61 780 784
-785 -61
-785 783
61 -783 785
-786 -784
-786 -785
784 785 786
-787 132
-787 -786
-132 786 787
-788 61
-788 -132
-61 132 788
-789 -787
-789 -788
787 788 789
-790 -63
-790 -187
63 187 790
-791 64
-791 187
-64 -187 791
-792 -64
-792 -790
64 790 792
-793 -791
-793 -792
791 792 793
-794 -16
-794 62
16 -62 794
-795 62
-795 -794
-62 794 795
-796 63
-796 -795
-63 795 796
-797 16
-797 -62
-16 62 797
-798 -63
-798 797
63 -797 798
-799 -258
-799 -798
258 798 799
-800 64
-800 796
-64 -796 800
-801 -64
-801 -799
64 799 801
-802 -800
-802 -801
800 801 802
-803 65
-803 -793
-65 793 803
-804 -65
-804 -802
65 802 804
-805 -803
-805 -804
803 804 805
-806 133
-806 -805
-133 805 806
-807 62
-807 -133
-62 133 807
-808 -806
-808 -807
806 807 808
-809 62
-809 392
-62 -392 809
-810 -63
-810 809
63 -809 810
-811 -258
-811 -810
258 810 811
-812 64
-812 184
-64 -184 812
-813 -64
-813 -811
64 811 813
-814 -812
-814 -813
812 813 814
-815 63
-815 -796
-63 796 815
-816 -62
-816 -393
62 393 816
-817 63
-817 816
-63 -816 817
-818 -184
-818 -817
184 817 818
-819 64
-819 -815
-64 815 819
-820 -64
-820 -818
64 818 820
-821 -819
-821 -820
819 820 821
-822 65
-822 -814
-65 814 822
-823 -65
-823 -821
65 821 823
-824 -822
-824 -823
822 823 824
-825 133
-825 -824
-133 824 825
-826 63
-826 -133
-63 133 826
-827 -825
-827 -826
825 826 827
-828 62
-828 -392
-62 392 828
-829 62
-829 63
-62 -63 829
-830 -63
-830 828
63 -828 830
-831 -829
-831 -830
829 830 831
-832 -63
-832 64
63 -64 832
-833 -64
-833 -831
64 831 833
-834 -832
-834 -833
832 833 834
-835 -62
-835 393
62 -393 835
-836 -62
-836 -835
62 835 836
-837 63
-837 -836
-63 836 837
-838 -64
-838 837
64 -837 838
-839 -819
-839 -838
819 838 839
-840 65
-840 -834
-65 834 840
-841 -65
-841 -839
65 839 841
-842 -840
-842 -841
840 841 842
-843 133
-843 -842
-133 842 843
-844 64
-844 -133
-64 133 844
-845 -843
-845 -844
843 844 845
-846 64
-846 -832
-64 832 846
-847 16
-847 62
-16 -62 847
-848 63
-848 847
-63 -847 848
-849 64
-849 848
-64 -848 849
-850 65
-850 -846
-65 846 850
-851 -65
-851 849
65 -849 851
-852 -850
-852 -851
850 851 852
-853 133
-853 -852
-133 852 853
-854 65
-854 -133
-65 133 854
-855 -853
-855 -854
853 854 855
-856 -67
-856 -195
67 195 856
-857 68
-857 195
-68 -195 857
-858 -68
-858 -856
68 856 858
-859 -857
-859 -858
857 858 859
-860 -17
-860 66
17 -66 860
-861 66
-861 -860
-66 860 861
-862 67
-862 -861
-67 861 862
-863 17
-863 -66
-17 66 863
-864 -67
-864 863
67 -863 864
-865 -265
-865 -864
265 864 865
-866 68
-866 862
-68 -862 866
-867 -68
-867 -865
68 865 867
-868 -866
-868 -867
866 867 868
-869 69
-869 -859
-69 859 869
-870 -69
-870 -868
69 868 870
-871 -869
-871 -870
869 870 871
-872 134
-872 -871
-134 871 872
-873 66
-873 -134
-66 134 873
-874 -872
-874 -873
872 873 874
-875 66
-875 392
-66 -392 875
-876 -67
-876 875
67 -875 876
-877 -265
-877 -876
265 876 877
-878 68
-878 192
-68 -192 878
-879 -68
-879 -877
68 877 879
-880 -878
-880 -879
878 879 880
-881 67
-881 -862
-67 862 881
-882 -66
-882 -393
66 393 882
-883 67
-883 882
-67 -882 883
-884 -192
-884 -883
192 883 884
-885 68
-885 -881
-68 881 885
-886 -68
-886 -884
68 884 886
-887 -885
-887 -886
885 886 887
-888 69
-888 -880
-69 880 888
-889 -69
-889 -887
69 887 889
-890 -888
-890 -889
888 889 890
-891 134
-891 -890
-134 890 891
-892 67
-892 -134
-67 134 892
-893 -891
-893 -892
891 892 893
-894 66
-894 -392
-66 392 894
-895 66
-895 67
-66 -67 895
-896 -67
-896 894
67 -894 896
-897 -895
-897 -896
895 896 897
-898 -67
-898 68
67 -68 898
-899 -68
-899 -897
68 897 899
-900 -898
-900 -899
898 899 900
-901 -66
-901 393
66 -393 901
-902 -66
-902 -901
66 901 902
-903 67
-903 -902
-67 902 903
-904 -68
-904 903
68 -903 904
-905 -885
-905 -904
885 904 905
-906 69
-906 -900
-69 900 906
-907 -69
-907 -905
69 905 907
-908 -906
-908 -907
906 907 908
-909 134
-909 -908
-134 908 909
-910 68
-910 -134
-68 134 910
-911 -909
-911 -910
909 910 911
-912 68
-912 -898
-68 898 912
-913 17
-913 66
-17 -66 913
-914 67
-914 913
-67 -913 914
-915 68
-915 914
-68 -914 915
-916 69
-916 -912
-69 912 916
-917 -69
-917 915
69 -915 917
-918 -916
-918 -917
916 917 918
-919 134
-919 -918
-134 918 919
-920 69
-920 -134
-69 134 920
-921 -919
-921 -920
919 920 921
-922 -71
-922 -203
71 203 922
-923 72
-923 203
-72 -203 923
-924 -72
-924 -922
72 922 924
-925 -923
-925 -924
923 924 925
-926 -18
-926 70
18 -70 926
-927 70
-927 -926
-70 926 927
-928 71
-928 -927
-71 927 928
-929 18
-929 -70
-18 70 929
-930 -71
-930 929
71 -929 930
-931 -272
-931 -930
272 930 931
-932 72
-932 928
-72 -928 932
-933 -72
-933 -931
72 931 933
-934 -932
-934 -933
932 933 934
-935 73
-935 -925
-73 925 935
-936 -73
-936 -934
73 934 936
-937 -935
-937 -936
935 936 937
-938 135
-938 -937
-135 937 938
-939 70
-939 -135
-70 135 939
-940 -938
-940 -939
938 939 940
-941 70
-941 392
-70 -392 941
-942 -71
-942 941
71 -941 942
-943 -272
-943 -942
272 942 943
-944 72
-944 200
-72 -200 944
-945 -72
-945 -943
72 943 945
-946 -944
-946 -945
944 945 946
-947 71
-947 -928
-71 928 947
-948 -70
-948 -393
70 393 948
-949 71
-949 948
-71 -948 949
-950 -200
-950 -949
200 949 950
-951 72
-951 -947
-72 947 951
-952 -72
-952 -950
72 950 952
-953 -951
-953 -952
951 952 953
-954 73
-954 -946
-73 946 954
-955 -73
-955 -953
73 953 955
-956 -954
-956 -955
954 955 956
-957 135
-957 -956
-135 956 957
-958 71
-958 -135
-71 135 958
-959 -957
-959 -958
957 958 959
-960 70
-960 -392
-70 392 960
-961 70
-961 71
-70 -71 961
-962 -71
-962 960
71 -960 962
-963 -961
-963 -962
961 962 963
-964 -71
-964 72
71 -72 964
-965 -72
-965 -963
72 963 965
-966 -964
-966 -965
964 965 966
-967 -70
-967 393
70 -393 967
-968 -70
-968 -967
70 967 968
-969 71
-969 -968
-71 968 969
-970 -72
-970 969
72 -969 970
-971 -951
-971 -970
951 970 971
-972 73
-972 -966
-73 966 972
-973 -73
-973 -971
73 971 973
-974 -972
-974 -973
972 973 974
-975 135
-975 -974
-135 974 975
-976 72
-976 -135
-72 135 976
-977 -975
-977 -976
975 976 977
-978 72
-978 -964
-72 964 978
-979 18
-979 70
-18 -70 979
-980 71
-980 979
-71 -979 980
-981 72
-981 980
-72 -980 981
-982 73
-982 -978
-73 978 982
-983 -73
-983 981
73 -981 983
-984 -982
-984 -983
982 983 984
-985 135
-985 -984
-135 984 985
-986 73
-986 -135
-73 135 986
-987 -985
-987 -986
985 986 987
-988 137
-988 433
-137 -433 988
-989 127
-989 988
-127 -988 989
-990 145
-990 499
-145 -499 990
-991 128
-991 990
-128 -990 991
-992 153
-992 565
-153 -565 992
-993 129
-993 992
-129 -992 993
-994 161
-994 631
-161 -631 994
-995 130
-995 994
-130 -994 995
-996 169
-996 697
-169 -697 996
-997 131
-997 996
-131 -996 997
-998 177
-998 763
-177 -763 998
-999 132
-999 998
-132 -998 999
-1000 185
-1000 829
-185 -829 1000
-1001 133
-1001 1000
-133 -1000 1001
-1002 193
-1002 895
-193 -895 1002
-1003 134
-1003 1002
-134 -1002 1003
-1004 201
-1004 961
-201 -961 1004
-1005 135
-1005 1004
-135 -1004 1005
-1006 -989
-1006 -991
989 991 1006
-1007 -993
-1007 -995
993 995 1007
-1008 -997
-1008 -999
997 999 1008
-1009 -1001
-1009 -1003
1001 1003 1009
-1010 1006
-1010 1007
-1006 -1007 1010
-1011 1008
-1011 1009
-1008 -1009 1011
-1012 1010
-1012 1011
-1010 -1011 1012
-1013 -1005
-1013 1012
1005 -1012 1013
-1014 140
-1014 216
-140 -216 1014
-1015 127
-1015 1014
-127 -1014 1015
-1016 148
-1016 223
-148 -223 1016
-1017 128
-1017 1016
-128 -1016 1017
-1018 156
-1018 230
-156 -230 1018
-1019 129
-1019 1018
-129 -1018 1019
-1020 164
-1020 237
-164 -237 1020
-1021 130
-1021 1020
-130 -1020 1021
-1022 172
-1022 244
-172 -244 1022
-1023 131
-1023 1022
-131 -1022 1023
-1024 180
-1024 251
-180 -251 1024
-1025 132
-1025 1024
-132 -1024 1025
-1026 188
-1026 258
-188 -258 1026
-1027 133
-1027 1026
-133 -1026 1027
-1028 196
-1028 265
-196 -265 1028
-1029 134
-1029 1028
-134 -1028 1029
-1030 204
-1030 272
-204 -272 1030
-1031 135
-1031 1030
-135 -1030 1031
-1032 -1015
-1032 -1017
1015 1017 1032
-1033 -1019
-1033 -1021
1019 1021 1033
-1034 -1023
-1034 -1025
1023 1025 1034
-1035 -1027
-1035 -1029
1027 1029 1035
-1036 1032
-1036 1033
-1032 -1033 1036
-1037 1034
-1037 1035
-1034 -1035 1037
-1038 1036
-1038 1037
-1036 -1037 1038
-1039 -1031
-1039 1038
1031 -1038 1039
-1040 -74
-1040 75
74 -75 1040
-1041 74
-1041 -75
-74 75 1041
-1042 -1040
-1042 -1041
1040 1041 1042
-1043 -74
-1043 -75
74 75 1043
-1044 -393
-1044 -1043
393 1043 1044
-1045 -74
-1045 -1039
74 1039 1045
-1046 74
-1046 1039
-74 -1039 1046
-1047 -1045
-1047 -1046
1045 1046 1047
-1048 -74
-1048 -1013
74 1013 1048
-1049 1013
-1049 -1047
-1013 1047 1049
-1050 -1048
-1050 -1049
1048 1049 1050
-1051 -1039
-1051 -1044
1039 1044 1051
-1052 75
-1052 1039
-75 -1039 1052
-1053 -1051
-1053 -1052
1051 1052 1053
-1054 -1013
-1054 -1042
1013 1042 1054
-1055 1013
-1055 -1053
-1013 1053 1055
-1056 -1054
-1056 -1055
1054 1055 1056
-1057 217
-1057 433
-217 -433 1057
-1058 -29
-1058 1057
29 -1057 1058
-1059 224
-1059 499
-224 -499 1059
-1060 -30
-1060 1059
30 -1059 1060
-1061 231
-1061 565
-231 -565 1061
-1062 -31
-1062 1061
31 -1061 1062
-1063 238
-1063 631
-238 -631 1063
-1064 -32
-1064 1063
32 -1063 1064
-1065 245
-1065 697
-245 -697 1065
-1066 -33
-1066 1065
33 -1065 1066
-1067 252
-1067 763
-252 -763 1067
-1068 -34
-1068 1067
34 -1067 1068
-1069 259
-1069 829
-259 -829 1069
-1070 -35
-1070 1069
35 -1069 1070
-1071 266
-1071 895
-266 -895 1071
-1072 -36
-1072 1071
36 -1071 1072
-1073 273
-1073 961
-273 -961 1073
-1074 -37
-1074 1073
37 -1073 1074
-1075 1058
-1075 -1060
-1058 1060 1075
-1076 -1058
-1076 1060
1058 -1060 1076
-1077 -1075
-1077 -1076
1075 1076 1077
-1078 1058
-1078 1060
-1058 -1060 1078
-1079 -1062
-1079 -1077
1062 1077 1079
-1080 1062
-1080 1077
-1062 -1077 1080
-1081 -1079
-1081 -1080
1079 1080 1081
-1082 1062
-1082 -1077
-1062 1077 1082
-1083 1078
-1083 -1082
-1078 1082 1083
-1084 -1078
-1084 1082
1078 -1082 1084
-1085 -1083
-1085 -1084
1083 1084 1085
-1086 1078
-1086 1082
-1078 -1082 1086
-1087 -1064
-1087 -1081
1064 1081 1087
-1088 1064
-1088 1081
-1064 -1081 1088
-1089 -1087
-1089 -1088
1087 1088 1089
-1090 1064
-1090 -1081
-1064 1081 1090
-1091 -1086
-1091 -1089
1086 1089 1091
-1092 1086
-1092 1089
-1086 -1089 1092
-1093 -1091
-1093 -1092
1091 1092 1093
-1094 1086
-1094 -1089
-1086 1089 1094
-1095 -1090
-1095 -1094
1090 1094 1095
-1096 -1085
-1096 1095
1085 -1095 1096
-1097 1085
-1097 -1095
-1085 1095 1097
-1098 -1096
-1098 -1097
1096 1097 1098
-1099 -1085
-1099 -1095
1085 1095 1099
-1100 -1066
-1100 -1093
1066 1093 1100
-1101 1066
-1101 1093
-1066 -1093 1101
-1102 -1100
-1102 -1101
1100 1101 1102
-1103 1066
-1103 -1093
-1066 1093 1103
-1104 -1098
-1104 -1103
1098 1103 1104
-1105 1098
-1105 1103
-1098 -1103 1105
-1106 -1104
-1106 -1105
1104 1105 1106
-1107 -1098
-1107 1103
1098 -1103 1107
-1108 1099
-1108 -1107
-1099 1107 1108
-1109 -1099
-1109 1107
1099 -1107 1109
-1110 -1108
-1110 -1109
1108 1109 1110
-1111 1099
-1111 1107
-1099 -1107 1111
-1112 -1068
-1112 -1102
1068 1102 1112
-1113 1068
-1113 1102
-1068 -1102 1113
-1114 -1112
-1114 -1113
1112 1113 1114
-1115 1068
-1115 -1102
-1068 1102 1115
-1116 -1111
-1116 -1114
1111 1114 1116
-1117 1111
-1117 1114
-1111 -1114 1117
-1118 -1116
-1118 -1117
1116 1117 1118
-1119 1111
-1119 -1114
-1111 1114 1119
-1120 -1115
-1120 -1119
1115 1119 1120
-1121 -1106
-1121 1120
1106 -1120 1121
-1122 1106
-1122 -1120
-1106 1120 1122
-1123 -1121
-1123 -1122
1121 1122 1123
-1124 -1106
-1124 -1120
1106 1120 1124
-1125 -1110
-1125 -1124
1110 1124 1125
-1126 1110
-1126 1124
-1110 -1124 1126
-1127 -1125
-1127 -1126
1125 1126 1127
-1128 -1110
-1128 1124
1110 -1124 1128
-1129 -1070
-1129 -1118
1070 1118 1129
-1130 1070
-1130 1118
-1070 -1118 1130
-1131 -1129
-1131 -1130
1129 1130 1131
-1132 1070
-1132 -1118
-1070 1118 1132
-1133 -1128
-1133 -1131
1128 1131 1133
-1134 1128
-1134 1131
-1128 -1131 1134
-1135 -1133
-1135 -1134
1133 1134 1135
-1136 1128
-1136 -1131
-1128 1131 1136
-1137 -1132
-1137 -1136
1132 1136 1137
-1138 -1123
-1138 1137
1123 -1137 1138
-1139 1123
-1139 -1137
-1123 1137 1139
-1140 -1138
-1140 -1139
1138 1139 1140
-1141 -1123
-1141 -1137
1123 1137 1141
-1142 -1127
-1142 -1141
1127 1141 1142
-1143 1127
-1143 1141
-1127 -1141 1143
-1144 -1142
-1144 -1143
1142 1143 1144
-1145 -1127
-1145 1141
1127 -1141 1145
-1146 -1072
-1146 -1135
1072 1135 1146
-1147 1072
-1147 1135
-1072 -1135 1147
-1148 -1146
-1148 -1147
1146 1147 1148
-1149 1072
-1149 -1135
-1072 1135 1149
-1150 -1145
-1150 -1148
1145 1148 1150
-1151 1145
-1151 1148
-1145 -1148 1151
-1152 -1150
-1152 -1151
1150 1151 1152
-1153 1145
-1153 -1148
-1145 1148 1153
-1154 -1149
-1154 -1153
1149 1153 1154
-1155 -1140
-1155 1154
1140 -1154 1155
-1156 1140
-1156 -1154
-1140 1154 1156
-1157 -1155
-1157 -1156
1155 1156 1157
-1158 -1140
-1158 -1154
1140 1154 1158
-1159 -1144
-1159 -1158
1144 1158 1159
-1160 1144
-1160 1158
-1144 -1158 1160
-1161 -1159
-1161 -1160
1159 1160 1161
-1162 -1144
-1162 1158
1144 -1158 1162
-1163 -1074
-1163 -1152
1074 1152 1163
-1164 1074
-1164 1152
-1074 -1152 1164
-1165 -1163
-1165 -1164
1163 1164 1165
-1166 1074
-1166 -1152
-1074 1152 1166
-1167 -1157
-1167 -1166
1157 1166 1167
-1168 1157
-1168 1166
-1157 -1166 1168
-1169 -1167
-1169 -1168
1167 1168 1169
-1170 -1157
-1170 1166
1157 -1166 1170
-1171 -1161
-1171 -1170
1161 1170 1171
-1172 1161
-1172 1170
-1161 -1170 1172
-1173 -1171
-1173 -1172
1171 1172 1173
-1174 -1161
-1174 1170
1161 -1170 1174
-1175 1162
-1175 -1174
-1162 1174 1175
-1176 -1162
-1176 1174
1162 -1174 1176
-1177 -1175
-1177 -1176
1175 1176 1177
-1178 1162
-1178 1174
-1162 -1174 1178
-1179 -1173
-1179 1177
1173 -1177 1179
-1180 1177
-1180 -1179
-1177 1179 1180
-1181 -392
-1181 -393
392 393 1181
-1182 393
-1182 -1013
-393 1013 1182
-1183 -1039
-1183 1043
1039 -1043 1183
-1184 1180
-1184 -1182
-1180 1182 1184
-1185 -1181
-1185 -1183
1181 1183 1185
-1186 1184
-1186 1185
-1184 -1185 1186
-1186
